Instance: E072-04f.dat
Class:  2
   71 --- number of customers (no depot)
   14 --- number of vehicles
  104 --- number of items
Capacity - height - width of vehicles
 30000     40     20
Node - x - y - demand
    0     0.0     0.0     0.0
    1   -12.0    -6.0  7063.0
    2   -15.0    -5.0    51.0
    3    -1.0   -18.0    23.0
    4     2.0   -21.0  3074.0
    5    -1.0   -17.0   349.0
    6    -9.0   -12.0  1047.0
    7     2.0   -22.0   698.0
    8     1.0   -21.0  3001.0
    9     7.0   -25.0    31.0
   10    -7.0   -17.0  1135.0
   11   -11.0    -5.0 21611.0
   12   -14.0    -9.0    57.0
   13   -14.0    -8.0    51.0
   14   -11.0    -2.0   551.0
   15   -14.0    -5.0   179.0
   16   -15.0    -9.0     6.0
   17   -15.0    -8.0   528.0
   18    -9.0    -6.0  2832.0
   19   -14.0    -4.0  1514.0
   20     3.0     6.0   889.0
   21     5.0     9.0  2554.0
   22     5.0    10.0  1215.0
   23     2.0     8.0  1810.0
   24     1.0     9.0  3050.0
   25     1.0    10.0     4.0
   26     2.0     9.0  1563.0
   27     6.0    14.0   741.0
   28     5.0    12.0  1532.0
   29     3.0     7.0   709.0
   30     4.0     8.0  1022.0
   31    -6.0     1.0   883.0
   32    -6.0     2.0  1689.0
   33    -8.0    -2.0 10235.0
   34    -7.0     2.0    29.0
   35    -7.0    -3.0  2894.0
   36    -7.0    -2.0   450.0
   37   -20.0    12.0   411.0
   38   -20.0    13.0   207.0
   39   -12.0    10.0   496.0
   40   -20.0    15.0  1021.0
   41    -6.0     8.0   117.0
   42     2.0    21.0    46.0
   43     2.0    22.0     8.0
   44     1.0    21.0    18.0
   45    -1.0    24.0   561.0
   46     1.0    22.0  1877.0
   47    -2.0    20.0  3542.0
   48    -2.0    21.0   801.0
   49    -4.0    18.0   967.0
   50    -4.0    19.0    62.0
   51    -5.0    18.0  1366.0
   52    -5.0    26.0   230.0
   53     1.0    23.0     4.0
   54    -6.0     5.0    12.0
   55    -6.0     6.0   145.0
   56    -9.0     6.0  7149.0
   57    -9.0     7.0  2250.0
   58   -12.0     5.0   383.0
   59   -12.0     6.0   134.0
   60   -11.0     3.0  1947.0
   61   -11.0     4.0   182.0
   62   -14.0     4.0  3934.0
   63   -14.0     5.0   468.0
   64   -15.0     4.0    18.0
   65   -15.0     5.0   133.0
   66   -16.0     7.0  2340.0
   67   -16.0     8.0   754.0
   68   -15.0    10.0  1264.0
   69   -20.0    10.0   806.0
   70    -5.0    19.0  3665.0
   71    -9.0   -11.0  2452.0
Node - number of items - h - w for each item
    0   0
    1   2   16    8   15    8
    2   1    6   10
    3   1    6   17
    4   2   10    9   18    3
    5   2    6   18   27    4
    6   2    7   16   16   10
    7   2   17    5   34    3
    8   2    8   13   10    8
    9   1   32    3
   10   1    9    9
   11   2    8   13   36    4
   12   1    6   12
   13   1    5   11
   14   2   14    9   30    2
   15   1   10    7
   16   2    7   14   24    2
   17   1   16    4
   18   2    7   12    6   11
   19   1   24    3
   20   2   18    7   10    5
   21   1   17   10
   22   2    7   10   29    2
   23   2    4   15   10    7
   24   2   14    9   18    5
   25   2   11    7   18    5
   26   1   14   10
   27   2    7   12   18    4
   28   1   34    2
   29   1    6   15
   30   2   20    8   15    5
   31   2   15    9   34    3
   32   1   20    3
   33   2    7   16    7   13
   34   2    5   13   15    7
   35   1   14    6
   36   1   12    6
   37   1   15   10
   38   1   32    4
   39   2    5   15    9    6
   40   2   16    6   22    3
   41   1    6    9
   42   1   29    3
   43   1   28    3
   44   1   33    2
   45   1    8   17
   46   2    9    7   26    4
   47   2   29    3   25    3
   48   1    4   12
   49   1    7   17
   50   1    5   11
   51   1   18    3
   52   1   10   10
   53   1    7   15
   54   1   16    8
   55   1    7    9
   56   2   23    4   20    3
   57   1   11    6
   58   1   14   10
   59   1   13    9
   60   1    9    5
   61   2   14   10   35    4
   62   2    4   14   13    5
   63   2   14    9   16    8
   64   2   12    9   25    3
   65   1   12    6
   66   2    5   15    5    9
   67   2    7   14   23    3
   68   1    7   12
   69   2    7   16   18    8
   70   1    8    8
   71   2    8    6   25    4
